p cnf 275 775
-78 208 0
-78 -209 0
-103 -207 0
-103 -208 0
-103 209 0
-4 -210 0
-4 -211 0
-4 -212 0
-29 210 0
-29 -211 0
-29 -212 0
-54 -210 0
-54 211 0
-54 -212 0
-79 210 0
-79 211 0
-79 -212 0
-104 -210 0
-104 -211 0
-104 212 0
-5 -213 0
-5 -214 0
-5 -215 0
-30 213 0
-30 -214 0
-30 -215 0
-55 -213 0
-55 214 0
-55 -215 0
-80 213 0
-80 214 0
-80 -215 0
-105 -213 0
-105 -214 0
-105 215 0
-6 -216 0
-6 -217 0
-6 -218 0
-31 216 0
-31 -217 0
-31 -218 0
-56 -216 0
-56 217 0
-56 -218 0
-81 216 0
-81 217 0
-81 -218 0
-106 -216 0
-106 -217 0
-106 218 0
-7 -219 0
-7 -220 0
-7 -221 0
-32 219 0
-32 -220 0
-32 -221 0
-57 -219 0
-57 220 0
-57 -221 0
-82 219 0
-82 220 0
-82 -221 0
-107 -219 0
-107 -220 0
-107 221 0
-8 -222 0
-8 -223 0
-8 -224 0
-33 222 0
-33 -223 0
-33 -224 0
-58 -222 0
-58 223 0
-58 -224 0
-83 222 0
-83 223 0
-83 -224 0
-108 -222 0
-108 -223 0
-108 224 0
-9 -225 0
-9 -226 0
-9 -227 0
-34 225 0
-34 -226 0
-34 -227 0
-59 -225 0
-59 226 0
-59 -227 0
-84 225 0
-84 226 0
-84 -227 0
-109 -225 0
-109 -226 0
-109 227 0
-10 -228 0
-10 -229 0
-10 -230 0
-35 228 0
-35 -229 0
-35 -230 0
-60 -228 0
-60 229 0
-60 -230 0
-85 228 0
-85 229 0
-85 -230 0
-110 -228 0
-110 -229 0
-110 230 0
-11 -231 0
-11 -232 0
-11 -233 0
-36 231 0
-36 -232 0
-36 -233 0
-61 -231 0
-61 232 0
-61 -233 0
-86 231 0
-86 232 0
-86 -233 0
-111 -231 0
-111 -232 0
-111 233 0
-12 -234 0
-12 -235 0
-12 -236 0
-37 234 0
-37 -235 0
-37 -236 0
-62 -234 0
-62 235 0
-62 -236 0
-87 234 0
-87 235 0
-87 -236 0
-112 -234 0
-112 -235 0
-112 236 0
-13 -237 0
-13 -238 0
-13 -239 0
-38 237 0
-38 -238 0
-38 -239 0
-63 -237 0
-63 238 0
-63 -239 0
-88 237 0
-88 238 0
-88 -239 0
-113 -237 0
-113 -238 0
-113 239 0
-14 -240 0
-14 -241 0
-14 -242 0
-39 240 0
-39 -241 0
-39 -242 0
-64 -240 0
-64 241 0
-64 -242 0
-89 240 0
-89 241 0
-89 -242 0
-114 -240 0
-114 -241 0
-114 242 0
-15 -243 0
-15 -244 0
-15 -245 0
-40 243 0
-40 -244 0
-40 -245 0
-65 -243 0
-65 244 0
-65 -245 0
-90 243 0
-90 244 0
-90 -245 0
-115 -243 0
-115 -244 0
-115 245 0
-16 -246 0
-16 -247 0
-16 -248 0
-41 246 0
-41 -247 0
-41 -248 0
-66 -246 0
-66 247 0
-66 -248 0
-91 246 0
-91 247 0
-91 -248 0
-116 -246 0
-116 -247 0
-116 248 0
-17 -249 0
-17 -250 0
-17 -251 0
-42 249 0
-42 -250 0
-42 -251 0
-67 -249 0
-67 250 0
-67 -251 0
-92 249 0
-92 250 0
-92 -251 0
-117 -249 0
-117 -250 0
-117 251 0
-18 -252 0
-18 -253 0
-18 -254 0
-43 252 0
-43 -253 0
-43 -254 0
-68 -252 0
-68 253 0
-68 -254 0
-93 252 0
-93 253 0
-93 -254 0
-118 -252 0
-118 -253 0
-118 254 0
-19 -255 0
-19 -256 0
-19 -257 0
-44 255 0
-44 -256 0
-44 -257 0
-69 -255 0
-69 256 0
-69 -257 0
-94 255 0
-94 256 0
-94 -257 0
-119 -255 0
-119 -256 0
-119 257 0
-20 -258 0
-20 -259 0
-20 -260 0
-45 258 0
-45 -259 0
-45 -260 0
-70 -258 0
-70 259 0
-70 -260 0
-95 258 0
-95 259 0
-95 -260 0
-120 -258 0
-120 -259 0
-120 260 0
-21 -261 0
-21 -262 0
-21 -263 0
-46 261 0
-46 -262 0
-46 -263 0
-71 -261 0
-71 262 0
-71 -263 0
-96 261 0
-96 262 0
-96 -263 0
-121 -261 0
-121 -262 0
-121 263 0
-22 -264 0
-22 -265 0
-22 -266 0
-47 264 0
-47 -265 0
-47 -266 0
-72 -264 0
-72 265 0
-72 -266 0
-97 264 0
-97 265 0
-97 -266 0
-122 -264 0
-122 -265 0
-122 266 0
-23 -267 0
-23 -268 0
-23 -269 0
-48 267 0
-48 -268 0
-48 -269 0
-73 -267 0
-73 268 0
-73 -269 0
-98 267 0
-98 268 0
-98 -269 0
-123 -267 0
-123 -268 0
-123 269 0
-24 -270 0
-24 -271 0
-24 -272 0
-49 270 0
-49 -271 0
-49 -272 0
-74 -270 0
-74 271 0
-74 -272 0
-99 270 0
-99 271 0
-99 -272 0
-124 -270 0
-124 -271 0
-124 272 0
-25 -273 0
-25 -274 0
-25 -275 0
-50 273 0
-50 -274 0
-50 -275 0
-75 -273 0
-75 274 0
-75 -275 0
-100 273 0
-100 274 0
-100 -275 0
-125 -273 0
-125 -274 0
-125 275 0
1 2 3 4 5 0
6 7 8 9 10 0
11 12 13 14 15 0
16 17 18 19 20 0
21 22 23 24 25 0
26 27 28 29 30 0
31 32 33 34 35 0
36 37 38 39 40 0
41 42 43 44 45 0
46 47 48 49 50 0
51 52 53 54 55 0
56 57 58 59 60 0
61 62 63 64 65 0
66 67 68 69 70 0
71 72 73 74 75 0
76 77 78 79 80 0
81 82 83 84 85 0
86 87 88 89 90 0
91 92 93 94 95 0
96 97 98 99 100 0
101 102 103 104 105 0
106 107 108 109 110 0
111 112 113 114 115 0
116 117 118 119 120 0
121 122 123 124 125 0
-1 -126 0
-1 -127 0
-1 -128 0
-6 126 0
-6 -127 0
-6 -128 0
-11 -126 0
-11 127 0
-11 -128 0
-16 126 0
-16 127 0
-16 -128 0
-21 -126 0
-21 -127 0
-21 128 0
-2 -129 0
-2 -130 0
-2 -131 0
-7 129 0
-7 -130 0
-7 -131 0
-12 -129 0
-12 130 0
-12 -131 0
-17 129 0
-17 130 0
-17 -131 0
-22 -129 0
-22 -130 0
-22 131 0
-3 -132 0
-3 -133 0
-3 -134 0
-8 132 0
-8 -133 0
-8 -134 0
-13 -132 0
-13 133 0
-13 -134 0
-18 132 0
-18 133 0
-18 -134 0
-23 -132 0
-23 -133 0
-23 134 0
-4 -135 0
-4 -136 0
-4 -137 0
-9 135 0
-9 -136 0
-9 -137 0
-14 -135 0
-14 136 0
-14 -137 0
-19 135 0
-19 136 0
-19 -137 0
-24 -135 0
-24 -136 0
-24 137 0
-5 -138 0
-5 -139 0
-5 -140 0
-10 138 0
-10 -139 0
-10 -140 0
-15 -138 0
-15 139 0
-15 -140 0
-20 138 0
-20 139 0
-20 -140 0
-25 -138 0
-25 -139 0
-25 140 0
-26 -141 0
-26 -142 0
-26 -143 0
-31 141 0
-31 -142 0
-31 -143 0
-36 -141 0
-36 142 0
-36 -143 0
-41 141 0
-41 142 0
-41 -143 0
-46 -141 0
-46 -142 0
-46 143 0
-27 -144 0
-27 -145 0
-27 -146 0
-32 144 0
-32 -145 0
-32 -146 0
-37 -144 0
-37 145 0
-37 -146 0
-42 144 0
-42 145 0
-42 -146 0
-47 -144 0
-47 -145 0
-47 146 0
-28 -147 0
-28 -148 0
-28 -149 0
-33 147 0
-33 -148 0
-33 -149 0
-38 -147 0
-38 148 0
-38 -149 0
-43 147 0
-43 148 0
-43 -149 0
-48 -147 0
-48 -148 0
-48 149 0
-29 -150 0
-29 -151 0
-29 -152 0
-34 150 0
-34 -151 0
-34 -152 0
-39 -150 0
-39 151 0
-39 -152 0
-44 150 0
-44 151 0
-44 -152 0
-49 -150 0
-49 -151 0
-49 152 0
-30 -153 0
-30 -154 0
-30 -155 0
-35 153 0
-35 -154 0
-35 -155 0
-40 -153 0
-40 154 0
-40 -155 0
-45 153 0
-45 154 0
-45 -155 0
-50 -153 0
-50 -154 0
-50 155 0
-51 -156 0
-51 -157 0
-51 -158 0
-56 156 0
-56 -157 0
-56 -158 0
-61 -156 0
-61 157 0
-61 -158 0
-66 156 0
-66 157 0
-66 -158 0
-71 -156 0
-71 -157 0
-71 158 0
-52 -159 0
-52 -160 0
-52 -161 0
-57 159 0
-57 -160 0
-57 -161 0
-62 -159 0
-62 160 0
-62 -161 0
-67 159 0
-67 160 0
-67 -161 0
-72 -159 0
-72 -160 0
-72 161 0
-53 -162 0
-53 -163 0
-53 -164 0
-58 162 0
-58 -163 0
-58 -164 0
-63 -162 0
-63 163 0
-63 -164 0
-68 162 0
-68 163 0
-68 -164 0
-73 -162 0
-73 -163 0
-73 164 0
-54 -165 0
-54 -166 0
-54 -167 0
-59 165 0
-59 -166 0
-59 -167 0
-64 -165 0
-64 166 0
-64 -167 0
-69 165 0
-69 166 0
-69 -167 0
-74 -165 0
-74 -166 0
-74 167 0
-55 -168 0
-55 -169 0
-55 -170 0
-60 168 0
-60 -169 0
-60 -170 0
-65 -168 0
-65 169 0
-65 -170 0
-70 168 0
-70 169 0
-70 -170 0
-75 -168 0
-75 -169 0
-75 170 0
-76 -171 0
-76 -172 0
-76 -173 0
-81 171 0
-81 -172 0
-81 -173 0
-86 -171 0
-86 172 0
-86 -173 0
-91 171 0
-91 172 0
-91 -173 0
-96 -171 0
-96 -172 0
-96 173 0
-77 -174 0
-77 -175 0
-77 -176 0
-82 174 0
-82 -175 0
-82 -176 0
-87 -174 0
-87 175 0
-87 -176 0
-92 174 0
-92 175 0
-92 -176 0
-97 -174 0
-97 -175 0
-97 176 0
-78 -177 0
-78 -178 0
-78 -179 0
-83 177 0
-83 -178 0
-83 -179 0
-88 -177 0
-88 178 0
-88 -179 0
-93 177 0
-93 178 0
-93 -179 0
-98 -177 0
-98 -178 0
-98 179 0
-79 -180 0
-79 -181 0
-79 -182 0
-84 180 0
-84 -181 0
-84 -182 0
-89 -180 0
-89 181 0
-89 -182 0
-94 180 0
-94 181 0
-94 -182 0
-99 -180 0
-99 -181 0
-99 182 0
-80 -183 0
-80 -184 0
-80 -185 0
-85 183 0
-85 -184 0
-85 -185 0
-90 -183 0
-90 184 0
-90 -185 0
-95 183 0
-95 184 0
-95 -185 0
-100 -183 0
-100 -184 0
-100 185 0
-101 -186 0
-101 -187 0
-101 -188 0
-106 186 0
-106 -187 0
-106 -188 0
-111 -186 0
-111 187 0
-111 -188 0
-116 186 0
-116 187 0
-116 -188 0
-121 -186 0
-121 -187 0
-121 188 0
-102 -189 0
-102 -190 0
-102 -191 0
-107 189 0
-107 -190 0
-107 -191 0
-112 -189 0
-112 190 0
-112 -191 0
-117 189 0
-117 190 0
-117 -191 0
-122 -189 0
-122 -190 0
-122 191 0
-103 -192 0
-103 -193 0
-103 -194 0
-108 192 0
-108 -193 0
-108 -194 0
-113 -192 0
-113 193 0
-113 -194 0
-118 192 0
-118 193 0
-118 -194 0
-123 -192 0
-123 -193 0
-123 194 0
-104 -195 0
-104 -196 0
-104 -197 0
-109 195 0
-109 -196 0
-109 -197 0
-114 -195 0
-114 196 0
-114 -197 0
-119 195 0
-119 196 0
-119 -197 0
-124 -195 0
-124 -196 0
-124 197 0
-105 -198 0
-105 -199 0
-105 -200 0
-110 198 0
-110 -199 0
-110 -200 0
-115 -198 0
-115 199 0
-115 -200 0
-120 198 0
-120 199 0
-120 -200 0
-125 -198 0
-125 -199 0
-125 200 0
-1 -201 0
-1 -202 0
-1 -203 0
-26 201 0
-26 -202 0
-26 -203 0
-51 -201 0
-51 202 0
-51 -203 0
-76 201 0
-76 202 0
-76 -203 0
-101 -201 0
-101 -202 0
-101 203 0
-2 -204 0
-2 -205 0
-2 -206 0
-27 204 0
-27 -205 0
-27 -206 0
-52 -204 0
-52 205 0
-52 -206 0
-77 204 0
-77 205 0
-77 -206 0
-102 -204 0
-102 -205 0
-102 206 0
-3 -207 0
-3 -208 0
-3 -209 0
-28 207 0
-28 -208 0
-28 -209 0
-53 -207 0
-53 208 0
-53 -209 0
-78 207 0
